Minimize
	value: tt

Subject to
tt + 1000 s_1_1 > 0.0
tt - t_1_1 - 1000.240682 s_1_1  + 0.240682 s_1_7  > -998.949578
tt + 1000 s_2_1 > 0.0
tt - t_2_1 - 1000.252472 s_2_1  + 0.252472 s_2_7  > -994.422752
tt + 1000 s_1_2 > 0.0
tt - t_1_2 - 1000.240682 s_1_2  + 0.240682 s_1_8  > -998.733022
tt + 1000 s_2_2 > 0.0
tt - t_2_2 - 1000.252472 s_2_2  + 0.252472 s_2_8  > -993.410117
tt + 1000 s_1_3 > 0.0
tt - t_1_3 - 1000.240682 s_1_3  + 0.240682 s_1_8  > -998.645331
tt + 1000 s_2_3 > 0.0
tt - t_2_3 - 1000.252472 s_2_3  + 0.252472 s_2_8  > -990.769647
tt + 1000 s_1_4 > 0.0
tt - t_1_4 - 1000.481365 s_1_4  + 0.240682 s_1_8  + 0.240682 s_1_3  > -999.145267
tt + 1000 s_2_4 > 0.0
tt - t_2_4 - 1000.504944 s_2_4  + 0.252472 s_2_8  + 0.252472 s_2_3  > -994.388413
tt + 1000 s_1_5 > 0.0
tt - t_1_5 - 1000.481365 s_1_5  + 0.240682 s_1_7  + 0.240682 s_1_8  > -999.253311
tt + 1000 s_2_5 > 0.0
tt - t_2_5 - 1000.504944 s_2_5  + 0.252472 s_2_7  + 0.252472 s_2_8  > -995.063461
tt + 1000 s_1_6 > 0.0
tt - t_1_6 - 1001.203412 s_1_6  + 0.240682 s_1_5  + 0.240682 s_1_4  + 0.240682 s_1_1  + 0.240682 s_1_3  + 0.240682 s_1_2  > -999.790200
tt + 1000 s_2_6 > 0.0
tt - t_2_6 - 1001.262361 s_2_6  + 0.252472 s_2_5  + 0.252472 s_2_4  + 0.252472 s_2_1  + 0.252472 s_2_3  + 0.252472 s_2_2  > -995.809800
tt + 1000 s_1_7 > 0.0
tt - t_1_7 - 1000.000000 s_1_7  > -995.963044
tt + 1000 s_2_7 > 0.0
tt - t_2_7 - 1000.000000 s_2_7  > -988.651411
tt + 1000 s_1_8 > 0.0
tt - t_1_8 - 1000.000000 s_1_8  > -998.426800
tt + 1000 s_2_8 > 0.0
tt - t_2_8 - 1000.000000 s_2_8  > -995.042939
s_1_1 + s_2_1 = 1
s_1_2 + s_2_2 = 1
s_1_3 + s_2_3 = 1
s_1_4 + s_2_4 = 1
s_1_5 + s_2_5 = 1
s_1_6 + s_2_6 = 1
s_1_7 + s_2_7 = 1
s_1_8 + s_2_8 = 1
s_1_1 + s_1_2 + 1000 r_1_1_2 >= 2
- s_1_1 - s_1_2 - 1000 r_1_1_2 >= -1001
t_1_1 - t_1_2 - 1000.000000 u_1_1_2 - 0.240682 s_1_2  + 0.240682 s_1_8  + 2000.000000 r_1_1_2 > -998.733022
s_2_1 + s_2_2 + 1000 r_2_1_2 >= 2
- s_2_1 - s_2_2 - 1000 r_2_1_2 >= -1001
t_2_1 - t_2_2 - 1000.000000 u_2_1_2 - 0.252472 s_2_2  + 0.252472 s_2_8  + 2000.000000 r_2_1_2 > -993.410117
s_1_1 + s_1_3 + 1000 r_1_1_3 >= 2
- s_1_1 - s_1_3 - 1000 r_1_1_3 >= -1001
t_1_1 - t_1_3 - 1000.000000 u_1_1_3 - 0.240682 s_1_3  + 0.240682 s_1_8  + 2000.000000 r_1_1_3 > -998.645331
s_2_1 + s_2_3 + 1000 r_2_1_3 >= 2
- s_2_1 - s_2_3 - 1000 r_2_1_3 >= -1001
t_2_1 - t_2_3 - 1000.000000 u_2_1_3 - 0.252472 s_2_3  + 0.252472 s_2_8  + 2000.000000 r_2_1_3 > -990.769647
s_1_1 + s_1_4 + 1000 r_1_1_4 >= 2
- s_1_1 - s_1_4 - 1000 r_1_1_4 >= -1001
t_1_1 - t_1_4 - 1000.000000 u_1_1_4 - 0.481365 s_1_4  + 0.240682 s_1_8  + 0.240682 s_1_3  + 2000.000000 r_1_1_4 > -999.145267
s_2_1 + s_2_4 + 1000 r_2_1_4 >= 2
- s_2_1 - s_2_4 - 1000 r_2_1_4 >= -1001
t_2_1 - t_2_4 - 1000.000000 u_2_1_4 - 0.504944 s_2_4  + 0.252472 s_2_8  + 0.252472 s_2_3  + 2000.000000 r_2_1_4 > -994.388413
s_1_1 + s_1_5 + 1000 r_1_1_5 >= 2
- s_1_1 - s_1_5 - 1000 r_1_1_5 >= -1001
t_1_1 - t_1_5 - 1000.000000 u_1_1_5 - 0.481365 s_1_5  + 0.240682 s_1_7  + 0.240682 s_1_8  + 2000.000000 r_1_1_5 > -999.253311
s_2_1 + s_2_5 + 1000 r_2_1_5 >= 2
- s_2_1 - s_2_5 - 1000 r_2_1_5 >= -1001
t_2_1 - t_2_5 - 1000.000000 u_2_1_5 - 0.504944 s_2_5  + 0.252472 s_2_7  + 0.252472 s_2_8  + 2000.000000 r_2_1_5 > -995.063461
t_1_6 - t_1_1 - 1000.240682 s_1_1  + 0.240682 s_1_7  > -998.949578
t_1_6 - t_2_1 - 1000.252472 s_2_1  + 0.252472 s_2_7  > -994.422752
t_2_6 - t_1_1 - 1000.240682 s_1_1  + 0.240682 s_1_7  > -998.949578
t_2_6 - t_2_1 - 1000.252472 s_2_1  + 0.252472 s_2_7  > -994.422752
t_1_1 - t_1_7 - 1000.000000 s_1_7  > -995.963044
t_1_1 - t_2_7 - 1000.000000 s_2_7  > -988.651411
t_2_1 - t_1_7 - 1000.000000 s_1_7  > -995.963044
t_2_1 - t_2_7 - 1000.000000 s_2_7  > -988.651411
s_1_1 + s_1_8 + 1000 r_1_1_8 >= 2
- s_1_1 - s_1_8 - 1000 r_1_1_8 >= -1001
t_1_1 - t_1_8 - 1000.000000 u_1_1_8 - 0.000000 s_1_8  + 2000.000000 r_1_1_8 > -998.426800
s_2_1 + s_2_8 + 1000 r_2_1_8 >= 2
- s_2_1 - s_2_8 - 1000 r_2_1_8 >= -1001
t_2_1 - t_2_8 - 1000.000000 u_2_1_8 - 0.000000 s_2_8  + 2000.000000 r_2_1_8 > -995.042939
s_1_2 + s_1_1 + 1000 r_1_1_2 >= 2
- s_1_2 - s_1_1 - 1000 r_1_1_2 >= -1001
t_1_2 - t_1_1 + 1000.000000 u_1_1_2 - 0.240682 s_1_1  + 0.240682 s_1_7  + 2000.000000 r_1_1_2 > 1.050422
s_2_2 + s_2_1 + 1000 r_2_1_2 >= 2
- s_2_2 - s_2_1 - 1000 r_2_1_2 >= -1001
t_2_2 - t_2_1 + 1000.000000 u_2_1_2 - 0.252472 s_2_1  + 0.252472 s_2_7  + 2000.000000 r_2_1_2 > 5.577248
s_1_2 + s_1_3 + 1000 r_1_2_3 >= 2
- s_1_2 - s_1_3 - 1000 r_1_2_3 >= -1001
t_1_2 - t_1_3 - 1000.000000 u_1_2_3 - 0.240682 s_1_3  + 0.240682 s_1_8  + 2000.000000 r_1_2_3 > -998.645331
s_2_2 + s_2_3 + 1000 r_2_2_3 >= 2
- s_2_2 - s_2_3 - 1000 r_2_2_3 >= -1001
t_2_2 - t_2_3 - 1000.000000 u_2_2_3 - 0.252472 s_2_3  + 0.252472 s_2_8  + 2000.000000 r_2_2_3 > -990.769647
s_1_2 + s_1_4 + 1000 r_1_2_4 >= 2
- s_1_2 - s_1_4 - 1000 r_1_2_4 >= -1001
t_1_2 - t_1_4 - 1000.000000 u_1_2_4 - 0.481365 s_1_4  + 0.240682 s_1_8  + 0.240682 s_1_3  + 2000.000000 r_1_2_4 > -999.145267
s_2_2 + s_2_4 + 1000 r_2_2_4 >= 2
- s_2_2 - s_2_4 - 1000 r_2_2_4 >= -1001
t_2_2 - t_2_4 - 1000.000000 u_2_2_4 - 0.504944 s_2_4  + 0.252472 s_2_8  + 0.252472 s_2_3  + 2000.000000 r_2_2_4 > -994.388413
s_1_2 + s_1_5 + 1000 r_1_2_5 >= 2
- s_1_2 - s_1_5 - 1000 r_1_2_5 >= -1001
t_1_2 - t_1_5 - 1000.000000 u_1_2_5 - 0.481365 s_1_5  + 0.240682 s_1_7  + 0.240682 s_1_8  + 2000.000000 r_1_2_5 > -999.253311
s_2_2 + s_2_5 + 1000 r_2_2_5 >= 2
- s_2_2 - s_2_5 - 1000 r_2_2_5 >= -1001
t_2_2 - t_2_5 - 1000.000000 u_2_2_5 - 0.504944 s_2_5  + 0.252472 s_2_7  + 0.252472 s_2_8  + 2000.000000 r_2_2_5 > -995.063461
t_1_6 - t_1_2 - 1000.240682 s_1_2  + 0.240682 s_1_8  > -998.733022
t_1_6 - t_2_2 - 1000.252472 s_2_2  + 0.252472 s_2_8  > -993.410117
t_2_6 - t_1_2 - 1000.240682 s_1_2  + 0.240682 s_1_8  > -998.733022
t_2_6 - t_2_2 - 1000.252472 s_2_2  + 0.252472 s_2_8  > -993.410117
s_1_2 + s_1_7 + 1000 r_1_2_7 >= 2
- s_1_2 - s_1_7 - 1000 r_1_2_7 >= -1001
t_1_2 - t_1_7 - 1000.000000 u_1_2_7 - 0.000000 s_1_7  + 2000.000000 r_1_2_7 > -995.963044
s_2_2 + s_2_7 + 1000 r_2_2_7 >= 2
- s_2_2 - s_2_7 - 1000 r_2_2_7 >= -1001
t_2_2 - t_2_7 - 1000.000000 u_2_2_7 - 0.000000 s_2_7  + 2000.000000 r_2_2_7 > -988.651411
t_1_2 - t_1_8 - 1000.000000 s_1_8  > -998.426800
t_1_2 - t_2_8 - 1000.000000 s_2_8  > -995.042939
t_2_2 - t_1_8 - 1000.000000 s_1_8  > -998.426800
t_2_2 - t_2_8 - 1000.000000 s_2_8  > -995.042939
s_1_3 + s_1_1 + 1000 r_1_1_3 >= 2
- s_1_3 - s_1_1 - 1000 r_1_1_3 >= -1001
t_1_3 - t_1_1 + 1000.000000 u_1_1_3 - 0.240682 s_1_1  + 0.240682 s_1_7  + 2000.000000 r_1_1_3 > 1.050422
s_2_3 + s_2_1 + 1000 r_2_1_3 >= 2
- s_2_3 - s_2_1 - 1000 r_2_1_3 >= -1001
t_2_3 - t_2_1 + 1000.000000 u_2_1_3 - 0.252472 s_2_1  + 0.252472 s_2_7  + 2000.000000 r_2_1_3 > 5.577248
s_1_3 + s_1_2 + 1000 r_1_2_3 >= 2
- s_1_3 - s_1_2 - 1000 r_1_2_3 >= -1001
t_1_3 - t_1_2 + 1000.000000 u_1_2_3 - 0.240682 s_1_2  + 0.240682 s_1_8  + 2000.000000 r_1_2_3 > 1.266978
s_2_3 + s_2_2 + 1000 r_2_2_3 >= 2
- s_2_3 - s_2_2 - 1000 r_2_2_3 >= -1001
t_2_3 - t_2_2 + 1000.000000 u_2_2_3 - 0.252472 s_2_2  + 0.252472 s_2_8  + 2000.000000 r_2_2_3 > 6.589883
t_1_4 - t_1_3 - 1000.240682 s_1_3  + 0.240682 s_1_8  > -998.645331
t_1_4 - t_2_3 - 1000.252472 s_2_3  + 0.252472 s_2_8  > -990.769647
t_2_4 - t_1_3 - 1000.240682 s_1_3  + 0.240682 s_1_8  > -998.645331
t_2_4 - t_2_3 - 1000.252472 s_2_3  + 0.252472 s_2_8  > -990.769647
s_1_3 + s_1_5 + 1000 r_1_3_5 >= 2
- s_1_3 - s_1_5 - 1000 r_1_3_5 >= -1001
t_1_3 - t_1_5 - 1000.000000 u_1_3_5 - 0.481365 s_1_5  + 0.240682 s_1_7  + 0.240682 s_1_8  + 2000.000000 r_1_3_5 > -999.253311
s_2_3 + s_2_5 + 1000 r_2_3_5 >= 2
- s_2_3 - s_2_5 - 1000 r_2_3_5 >= -1001
t_2_3 - t_2_5 - 1000.000000 u_2_3_5 - 0.504944 s_2_5  + 0.252472 s_2_7  + 0.252472 s_2_8  + 2000.000000 r_2_3_5 > -995.063461
t_1_6 - t_1_3 - 1000.240682 s_1_3  + 0.240682 s_1_8  > -998.645331
t_1_6 - t_2_3 - 1000.252472 s_2_3  + 0.252472 s_2_8  > -990.769647
t_2_6 - t_1_3 - 1000.240682 s_1_3  + 0.240682 s_1_8  > -998.645331
t_2_6 - t_2_3 - 1000.252472 s_2_3  + 0.252472 s_2_8  > -990.769647
s_1_3 + s_1_7 + 1000 r_1_3_7 >= 2
- s_1_3 - s_1_7 - 1000 r_1_3_7 >= -1001
t_1_3 - t_1_7 - 1000.000000 u_1_3_7 - 0.000000 s_1_7  + 2000.000000 r_1_3_7 > -995.963044
s_2_3 + s_2_7 + 1000 r_2_3_7 >= 2
- s_2_3 - s_2_7 - 1000 r_2_3_7 >= -1001
t_2_3 - t_2_7 - 1000.000000 u_2_3_7 - 0.000000 s_2_7  + 2000.000000 r_2_3_7 > -988.651411
t_1_3 - t_1_8 - 1000.000000 s_1_8  > -998.426800
t_1_3 - t_2_8 - 1000.000000 s_2_8  > -995.042939
t_2_3 - t_1_8 - 1000.000000 s_1_8  > -998.426800
t_2_3 - t_2_8 - 1000.000000 s_2_8  > -995.042939
s_1_4 + s_1_1 + 1000 r_1_1_4 >= 2
- s_1_4 - s_1_1 - 1000 r_1_1_4 >= -1001
t_1_4 - t_1_1 + 1000.000000 u_1_1_4 - 0.240682 s_1_1  + 0.240682 s_1_7  + 2000.000000 r_1_1_4 > 1.050422
s_2_4 + s_2_1 + 1000 r_2_1_4 >= 2
- s_2_4 - s_2_1 - 1000 r_2_1_4 >= -1001
t_2_4 - t_2_1 + 1000.000000 u_2_1_4 - 0.252472 s_2_1  + 0.252472 s_2_7  + 2000.000000 r_2_1_4 > 5.577248
s_1_4 + s_1_2 + 1000 r_1_2_4 >= 2
- s_1_4 - s_1_2 - 1000 r_1_2_4 >= -1001
t_1_4 - t_1_2 + 1000.000000 u_1_2_4 - 0.240682 s_1_2  + 0.240682 s_1_8  + 2000.000000 r_1_2_4 > 1.266978
s_2_4 + s_2_2 + 1000 r_2_2_4 >= 2
- s_2_4 - s_2_2 - 1000 r_2_2_4 >= -1001
t_2_4 - t_2_2 + 1000.000000 u_2_2_4 - 0.252472 s_2_2  + 0.252472 s_2_8  + 2000.000000 r_2_2_4 > 6.589883
s_1_4 + s_1_5 + 1000 r_1_4_5 >= 2
- s_1_4 - s_1_5 - 1000 r_1_4_5 >= -1001
t_1_4 - t_1_5 - 1000.000000 u_1_4_5 - 0.481365 s_1_5  + 0.240682 s_1_7  + 0.240682 s_1_8  + 2000.000000 r_1_4_5 > -999.253311
s_2_4 + s_2_5 + 1000 r_2_4_5 >= 2
- s_2_4 - s_2_5 - 1000 r_2_4_5 >= -1001
t_2_4 - t_2_5 - 1000.000000 u_2_4_5 - 0.504944 s_2_5  + 0.252472 s_2_7  + 0.252472 s_2_8  + 2000.000000 r_2_4_5 > -995.063461
t_1_6 - t_1_4 - 1000.481365 s_1_4  + 0.240682 s_1_8  + 0.240682 s_1_3  > -999.145267
t_1_6 - t_2_4 - 1000.504944 s_2_4  + 0.252472 s_2_8  + 0.252472 s_2_3  > -994.388413
t_2_6 - t_1_4 - 1000.481365 s_1_4  + 0.240682 s_1_8  + 0.240682 s_1_3  > -999.145267
t_2_6 - t_2_4 - 1000.504944 s_2_4  + 0.252472 s_2_8  + 0.252472 s_2_3  > -994.388413
s_1_4 + s_1_7 + 1000 r_1_4_7 >= 2
- s_1_4 - s_1_7 - 1000 r_1_4_7 >= -1001
t_1_4 - t_1_7 - 1000.000000 u_1_4_7 - 0.000000 s_1_7  + 2000.000000 r_1_4_7 > -995.963044
s_2_4 + s_2_7 + 1000 r_2_4_7 >= 2
- s_2_4 - s_2_7 - 1000 r_2_4_7 >= -1001
t_2_4 - t_2_7 - 1000.000000 u_2_4_7 - 0.000000 s_2_7  + 2000.000000 r_2_4_7 > -988.651411
t_1_4 - t_1_8 - 1000.000000 s_1_8  > -998.426800
t_1_4 - t_2_8 - 1000.000000 s_2_8  > -995.042939
t_2_4 - t_1_8 - 1000.000000 s_1_8  > -998.426800
t_2_4 - t_2_8 - 1000.000000 s_2_8  > -995.042939
s_1_5 + s_1_1 + 1000 r_1_1_5 >= 2
- s_1_5 - s_1_1 - 1000 r_1_1_5 >= -1001
t_1_5 - t_1_1 + 1000.000000 u_1_1_5 - 0.240682 s_1_1  + 0.240682 s_1_7  + 2000.000000 r_1_1_5 > 1.050422
s_2_5 + s_2_1 + 1000 r_2_1_5 >= 2
- s_2_5 - s_2_1 - 1000 r_2_1_5 >= -1001
t_2_5 - t_2_1 + 1000.000000 u_2_1_5 - 0.252472 s_2_1  + 0.252472 s_2_7  + 2000.000000 r_2_1_5 > 5.577248
s_1_5 + s_1_2 + 1000 r_1_2_5 >= 2
- s_1_5 - s_1_2 - 1000 r_1_2_5 >= -1001
t_1_5 - t_1_2 + 1000.000000 u_1_2_5 - 0.240682 s_1_2  + 0.240682 s_1_8  + 2000.000000 r_1_2_5 > 1.266978
s_2_5 + s_2_2 + 1000 r_2_2_5 >= 2
- s_2_5 - s_2_2 - 1000 r_2_2_5 >= -1001
t_2_5 - t_2_2 + 1000.000000 u_2_2_5 - 0.252472 s_2_2  + 0.252472 s_2_8  + 2000.000000 r_2_2_5 > 6.589883
s_1_5 + s_1_3 + 1000 r_1_3_5 >= 2
- s_1_5 - s_1_3 - 1000 r_1_3_5 >= -1001
t_1_5 - t_1_3 + 1000.000000 u_1_3_5 - 0.240682 s_1_3  + 0.240682 s_1_8  + 2000.000000 r_1_3_5 > 1.354669
s_2_5 + s_2_3 + 1000 r_2_3_5 >= 2
- s_2_5 - s_2_3 - 1000 r_2_3_5 >= -1001
t_2_5 - t_2_3 + 1000.000000 u_2_3_5 - 0.252472 s_2_3  + 0.252472 s_2_8  + 2000.000000 r_2_3_5 > 9.230353
s_1_5 + s_1_4 + 1000 r_1_4_5 >= 2
- s_1_5 - s_1_4 - 1000 r_1_4_5 >= -1001
t_1_5 - t_1_4 + 1000.000000 u_1_4_5 - 0.481365 s_1_4  + 0.240682 s_1_8  + 0.240682 s_1_3  + 2000.000000 r_1_4_5 > 0.854733
s_2_5 + s_2_4 + 1000 r_2_4_5 >= 2
- s_2_5 - s_2_4 - 1000 r_2_4_5 >= -1001
t_2_5 - t_2_4 + 1000.000000 u_2_4_5 - 0.504944 s_2_4  + 0.252472 s_2_8  + 0.252472 s_2_3  + 2000.000000 r_2_4_5 > 5.611587
t_1_6 - t_1_5 - 1000.481365 s_1_5  + 0.240682 s_1_7  + 0.240682 s_1_8  > -999.253311
t_1_6 - t_2_5 - 1000.504944 s_2_5  + 0.252472 s_2_7  + 0.252472 s_2_8  > -995.063461
t_2_6 - t_1_5 - 1000.481365 s_1_5  + 0.240682 s_1_7  + 0.240682 s_1_8  > -999.253311
t_2_6 - t_2_5 - 1000.504944 s_2_5  + 0.252472 s_2_7  + 0.252472 s_2_8  > -995.063461
t_1_5 - t_1_7 - 1000.000000 s_1_7  > -995.963044
t_1_5 - t_2_7 - 1000.000000 s_2_7  > -988.651411
t_2_5 - t_1_7 - 1000.000000 s_1_7  > -995.963044
t_2_5 - t_2_7 - 1000.000000 s_2_7  > -988.651411
t_1_5 - t_1_8 - 1000.000000 s_1_8  > -998.426800
t_1_5 - t_2_8 - 1000.000000 s_2_8  > -995.042939
t_2_5 - t_1_8 - 1000.000000 s_1_8  > -998.426800
t_2_5 - t_2_8 - 1000.000000 s_2_8  > -995.042939
s_1_7 + s_1_2 + 1000 r_1_2_7 >= 2
- s_1_7 - s_1_2 - 1000 r_1_2_7 >= -1001
t_1_7 - t_1_2 + 1000.000000 u_1_2_7 - 0.240682 s_1_2  + 0.240682 s_1_8  + 2000.000000 r_1_2_7 > 1.266978
s_2_7 + s_2_2 + 1000 r_2_2_7 >= 2
- s_2_7 - s_2_2 - 1000 r_2_2_7 >= -1001
t_2_7 - t_2_2 + 1000.000000 u_2_2_7 - 0.252472 s_2_2  + 0.252472 s_2_8  + 2000.000000 r_2_2_7 > 6.589883
s_1_7 + s_1_3 + 1000 r_1_3_7 >= 2
- s_1_7 - s_1_3 - 1000 r_1_3_7 >= -1001
t_1_7 - t_1_3 + 1000.000000 u_1_3_7 - 0.240682 s_1_3  + 0.240682 s_1_8  + 2000.000000 r_1_3_7 > 1.354669
s_2_7 + s_2_3 + 1000 r_2_3_7 >= 2
- s_2_7 - s_2_3 - 1000 r_2_3_7 >= -1001
t_2_7 - t_2_3 + 1000.000000 u_2_3_7 - 0.252472 s_2_3  + 0.252472 s_2_8  + 2000.000000 r_2_3_7 > 9.230353
s_1_7 + s_1_4 + 1000 r_1_4_7 >= 2
- s_1_7 - s_1_4 - 1000 r_1_4_7 >= -1001
t_1_7 - t_1_4 + 1000.000000 u_1_4_7 - 0.481365 s_1_4  + 0.240682 s_1_8  + 0.240682 s_1_3  + 2000.000000 r_1_4_7 > 0.854733
s_2_7 + s_2_4 + 1000 r_2_4_7 >= 2
- s_2_7 - s_2_4 - 1000 r_2_4_7 >= -1001
t_2_7 - t_2_4 + 1000.000000 u_2_4_7 - 0.504944 s_2_4  + 0.252472 s_2_8  + 0.252472 s_2_3  + 2000.000000 r_2_4_7 > 5.611587
s_1_7 + s_1_8 + 1000 r_1_7_8 >= 2
- s_1_7 - s_1_8 - 1000 r_1_7_8 >= -1001
t_1_7 - t_1_8 - 1000.000000 u_1_7_8 - 0.000000 s_1_8  + 2000.000000 r_1_7_8 > -998.426800
s_2_7 + s_2_8 + 1000 r_2_7_8 >= 2
- s_2_7 - s_2_8 - 1000 r_2_7_8 >= -1001
t_2_7 - t_2_8 - 1000.000000 u_2_7_8 - 0.000000 s_2_8  + 2000.000000 r_2_7_8 > -995.042939
s_1_8 + s_1_1 + 1000 r_1_1_8 >= 2
- s_1_8 - s_1_1 - 1000 r_1_1_8 >= -1001
t_1_8 - t_1_1 + 1000.000000 u_1_1_8 - 0.240682 s_1_1  + 0.240682 s_1_7  + 2000.000000 r_1_1_8 > 1.050422
s_2_8 + s_2_1 + 1000 r_2_1_8 >= 2
- s_2_8 - s_2_1 - 1000 r_2_1_8 >= -1001
t_2_8 - t_2_1 + 1000.000000 u_2_1_8 - 0.252472 s_2_1  + 0.252472 s_2_7  + 2000.000000 r_2_1_8 > 5.577248
s_1_8 + s_1_7 + 1000 r_1_7_8 >= 2
- s_1_8 - s_1_7 - 1000 r_1_7_8 >= -1001
t_1_8 - t_1_7 + 1000.000000 u_1_7_8 - 0.000000 s_1_7  + 2000.000000 r_1_7_8 > 4.036956
s_2_8 + s_2_7 + 1000 r_2_7_8 >= 2
- s_2_8 - s_2_7 - 1000 r_2_7_8 >= -1001
t_2_8 - t_2_7 + 1000.000000 u_2_7_8 - 0.000000 s_2_7  + 2000.000000 r_2_7_8 > 11.348589
Binary
s_1_1
s_2_1
s_1_2
s_2_2
s_1_3
s_2_3
s_1_4
s_2_4
s_1_5
s_2_5
s_1_6
s_2_6
s_1_7
s_2_7
s_1_8
s_2_8
u_1_1_2
r_1_1_2
u_2_1_2
r_2_1_2
u_1_1_3
r_1_1_3
u_2_1_3
r_2_1_3
u_1_1_4
r_1_1_4
u_2_1_4
r_2_1_4
u_1_1_5
r_1_1_5
u_2_1_5
r_2_1_5
u_1_1_8
r_1_1_8
u_2_1_8
r_2_1_8
u_1_2_3
r_1_2_3
u_2_2_3
r_2_2_3
u_1_2_4
r_1_2_4
u_2_2_4
r_2_2_4
u_1_2_5
r_1_2_5
u_2_2_5
r_2_2_5
u_1_2_7
r_1_2_7
u_2_2_7
r_2_2_7
u_1_3_5
r_1_3_5
u_2_3_5
r_2_3_5
u_1_3_7
r_1_3_7
u_2_3_7
r_2_3_7
u_1_4_5
r_1_4_5
u_2_4_5
r_2_4_5
u_1_4_7
r_1_4_7
u_2_4_7
r_2_4_7
u_1_7_8
r_1_7_8
u_2_7_8
r_2_7_8

End
